(set-logic QF_S)
(declare-fun var0 () String)
(assert (str.in.re var0 (re.++ (re.union (re.* (str.to.re "00")) (re.* (str.to.re "11"))) (re.++ (re.union (re.* (str.to.re "22")) (re.* (str.to.re "33"))) (re.++ (re.+ (re.+ (str.to.re "4"))) (re.++ (re.+ (re.+ (str.to.re "555"))) (re.++ (re.* (re.* (str.to.re "6"))) (re.++ (re.union (re.* (str.to.re "77")) (re.* (str.to.re "888"))) (re.++ (re.union (re.+ (str.to.re "999")) (re.+ (str.to.re "aa"))) (re.++ (re.* (re.+ (str.to.re "bb"))) (re.++ (re.union (re.union (str.to.re "c") (str.to.re "dd")) (re.union (str.to.re "e") (str.to.re "ff"))) (re.++ (re.union (re.+ (str.to.re "gg")) (re.+ (str.to.re "hhh"))) (re.++ (re.+ (re.union (str.to.re "iii") (str.to.re "j"))) (re.++ (re.* (re.union (str.to.re "k") (str.to.re "lll"))) (re.++ (re.+ (re.union (str.to.re "mmm") (str.to.re "nn"))) (re.++ (re.union (re.union (str.to.re "o") (str.to.re "pp")) (re.union (str.to.re "qqq") (str.to.re "r"))) (re.++ (re.+ (re.+ (str.to.re "s"))) (re.++ (re.union (re.+ (str.to.re "ttt")) (re.+ (str.to.re "uuu"))) (re.++ (re.union (re.union (str.to.re "vvv") (str.to.re "www")) (re.union (str.to.re "x") (str.to.re "yy"))) (re.++ (re.+ (re.+ (str.to.re "zz"))) (re.++ (re.+ (re.+ (str.to.re "AAA"))) (re.++ (re.union (re.+ (str.to.re "BB")) (re.+ (str.to.re "CCC"))) (re.++ (re.+ (re.union (str.to.re "D") (str.to.re "E"))) (re.++ (re.union (re.union (str.to.re "FFF") (str.to.re "GG")) (re.union (str.to.re "HHH") (str.to.re "I"))) (re.++ (re.+ (re.* (str.to.re "J"))) (re.++ (re.+ (re.* (str.to.re "KKK"))) (re.++ (re.* (re.union (str.to.re "L") (str.to.re "MMM"))) (re.++ (re.union (re.union (str.to.re "NNN") (str.to.re "OOO")) (re.union (str.to.re "PPP") (str.to.re "QQQ"))) (re.++ (re.* (re.+ (str.to.re "R"))) (re.++ (re.union (re.+ (str.to.re "S")) (re.+ (str.to.re "TT"))) (re.++ (re.+ (re.+ (str.to.re "U"))) (re.++ (re.union (re.* (str.to.re "VV")) (re.* (str.to.re "WW"))) (re.++ (re.* (re.union (str.to.re "XX") (str.to.re "Y"))) (re.++ (re.+ (re.union (str.to.re "ZZZ") (str.to.re "!!!"))) (re.++ (re.* (re.* (str.to.re """"""))) (re.++ (re.union (re.+ (str.to.re "###")) (re.+ (str.to.re "$$"))) (re.++ (re.+ (re.union (str.to.re "%") (str.to.re "&"))) (re.++ (re.* (re.union (str.to.re "''") (str.to.re "((("))) (re.++ (re.+ (re.union (str.to.re ")))") (str.to.re "*"))) (re.++ (re.* (re.+ (str.to.re "++"))) (re.++ (re.* (re.* (str.to.re ","))) (re.++ (re.* (re.* (str.to.re "-"))) (re.++ (re.union (re.union (str.to.re ".") (str.to.re "///")) (re.union (str.to.re ":::") (str.to.re ";;;"))) (re.++ (re.* (re.* (str.to.re "<"))) (re.union (re.+ (str.to.re "=")) (re.+ (str.to.re ">>")))))))))))))))))))))))))))))))))))))))))))))))
(check-sat)